Minimize
obj: 122y_1 + 146y_2 + 50y_3 + 64y_4 + 10y_5 + 62y_6 + 28y_7 + 28y_8 + 74y_9 + 32y_10 + 40y_11 + 62y_12 + 74y_13 + 26y_14 + 62y_15 + 28y_16 + 40y_17 + 12y_18 + 28y_19 + 90y_20 + 146y_21 + 46y_22 + 102y_23 + 70y_24 + 132y_25 + 28y_26 + 28y_27 + 74y_28 + 2y_29 + 118y_30 + 40y_31 + 2y_32 + 74y_33 + 158y_34 + 36y_35 + 32y_36 + 32y_37 + 16y_38 + 46y_39 + 132y_40 + 16y_41 + 32y_42 + 46y_43 + 146y_44 + 28y_45 + 46y_46 + 8y_47 + 130y_48 + 64y_49 + 26y_50 + 8y_51 + 2y_52 + 70y_53 + 40y_54 + 28y_55 + 90y_56 + 132y_57 + 16y_58 + 32y_59 + 28y_60 + 112y_61 + 46y_62 + 132y_63 + 84y_64 + 74y_65 + 40y_66 + 32y_67 + 51y_68 + 81y_69 + 158y_70 + 24y_71 + 6y_72 + 28y_73 + 130y_74 + 64y_75 + 10y_76 + 122y_77 + 32y_78 + 54y_79 + 2y_80 + 8y_81 + 42y_82 + 64y_83 + 10y_84 + 130y_85 + 54y_86 + 32y_87 + 36y_88 + 122y_89 + 74y_90 + 32y_91 + 44y_92 + 140y_93 + 16y_94 + 132y_95 + 28y_96 + 70y_97 + 46y_98 + 28y_99 + 132y_100 + 112y_101 + 84y_102 + 2y_103 + 40y_104 + 74y_105 + 62y_106 + 2y_107 + 76y_108 + 26y_109 + 6y_110 + 122y_111 + 14y_112 + 76y_113 + 50y_114 + 52y_115 + 32y_116 + 158y_117 + 16y_118 + 28y_119 + 140y_120 + 42y_121 + 16y_122 + 8y_123 + 28y_124 + 132y_125 + 112y_126 + 28y_127 + 16y_128 + 132y_129 + 24y_130 + 28y_131 + 76y_132 + 14y_133 + 98y_134 + 6y_135 + 84y_136 + 158y_137 + 36y_138 + 70y_139 + 28y_140 + 28y_141 + 90y_142 + 64y_143 + 76y_144 + 26y_145 + 6y_146 + 26y_147 + 158y_148 + 62y_149 + 98y_150 + 28y_151 + 14y_152 + 34y_153 + 122y_154 + 146y_155 + 158y_156 + 28y_157 + 6y_158 + 84y_159 + 132y_160 + 32y_161 + 132y_162 + 46y_163 + 132y_164 + 46y_165 + 102y_166 + 76y_167 + 16y_168 + 122y_169 + 54y_170 + 32y_171 + 26y_172 + 98y_173 + 62y_174 + 28y_175 + 102y_176 + 132y_177 + 164y_178 + 46y_179 + 76y_180 + 12y_181 + 28y_182 + 84y_183 + 6y_184 + 158y_185 + 34y_186 + 76y_187 + 14y_188 + 6y_189 + 24y_190 + 46y_191 + 90y_192 + 12y_193 + 28y_194 + 2y_195 + 42y_196 + 8y_197 + 28y_198 + 64y_199 + 8y_200 + 28y_201 + 6y_202 + 16y_203 + 12y_204 + 46y_205 + 37y_206 + 40y_207 + 62y_208 + 2y_209 + 24y_210 + 12y_211 + 28y_212 + 64y_213 + 76y_214 + 26y_215 + 8y_216 + 6y_217 + 28y_218 + 64y_219 + 24y_220 + 16y_221 + 158y_222 + 28y_223 + 132y_224 + 32y_225 + 74y_226 + 64y_227 + 40y_228 + 28y_229 + 8y_230 + 70y_231 + 28y_232 + 40y_233 + 81y_234 + 14y_235 + 158y_236 + 8y_237 + 98y_238 + 10y_239 + 186y_240 + 64y_241 + 40y_242 + 32y_243 + 16y_244 + 132y_245 + 24y_246 + 46y_247 + 18y_248 + 104y_249 + 6y_250 + 32y_251 + 4y_252 + 8y_253 + 4y_254 + 16y_255 + 8y_256 + 28y_257 + 90y_258 + 68y_259 + 8y_260 + 28y_261 + 76y_262 + 64y_263 + 24y_264 + 6y_265 + 28y_266 + 132y_267 + 37y_268 + 77y_269 + 76y_270 + 98y_271 + 60y_272 + 102y_273 + 164y_274 + 8y_275 + 4y_276 + 18y_277 + 186y_278 + 6y_279 + 146y_280 + 44y_281 + 16y_282 + 6y_283 + 132y_284 + 46y_285 + 24y_286 + 46y_287 + 112y_288 + 84y_289 + 2y_290 + 6y_291 + 8y_292 + 28y_293 + 32y_294 + 16y_295 + 122y_296 + 36y_297 + 84y_298 + 6y_299 + 46y_300 + 132y_301 + 44y_302 + 98y_303 + 16y_304 + 26y_305 + 6y_306 + 8y_307 + 2y_308 + 8y_309 + 14y_310 + 28y_311 + 112y_312 + 46y_313 + 28y_314 + 72y_315 + 50y_316 + 8y_317 + 4y_318 + 50y_319 + 16y_320 + 140y_321 + 44y_322 + 12y_323 + 90y_324 + 46y_325 + 26y_326 + 62y_327 + 74y_328 + 32y_329 + 46y_330 + 132y_331 + 102y_332 + 46y_333 + 28y_334 + 60y_335 + 84y_336 + 112y_337 + 102y_338 + 24y_339 + 132y_340 + 164y_341 + 76y_342 + 6y_343 + 60y_344 + 76y_345 + 6y_346 + 64y_347 + 90y_348 + 28y_349 + 26y_350 + 158y_351 + 74y_352 + 24y_353 + 158y_354 + 36y_355 + 16y_356 + 28y_357 + 90y_358 + 70y_359 + 16y_360 + 36y_361 + 24y_362 + 122y_363 + 16y_364 + 98y_365 + 8y_366 + 28y_367 + 74y_368 + 26y_369 + 28y_370 + 42y_371 + 16y_372 + 28y_373 + 8y_374 + 46y_375 + 102y_376 + 62y_377 + 118y_378 + 74y_379 + 28y_380 + 40y_381 + 70y_382 + 90y_383 + 28y_384 + 90y_385 + 28y_386 + 112y_387 + 6y_388 + 46y_389 + 84y_390 + 51y_391 + 70y_392 + 76y_393 + 10y_394 + 104y_395 + 24y_396 + 18y_397 + 36y_398 + 6y_399 + 12y_400 + 46y_401 + 40y_402 + 90y_403 + 40y_404 + 70y_405 + 62y_406 + 28y_407 + 74y_408 + 118y_409 + 76y_410 + 98y_411 + 34y_412 + 14y_413 + 16y_414 + 24y_415 + 46y_416 + 122y_417 + 14y_418 + 8y_419 + 14y_420 + 34y_421 + 28y_422 + 90y_423 + 114y_424 + 2y_425 + 62y_426 + 72y_427 + 76y_428 + 64y_429 + 158y_430 + 32y_431 + 36y_432 + 16y_433 + 146y_434 + 114y_435 + 2y_436 + 12y_437 + 40y_438 + 28y_439 + 112y_440 + 46y_441 + 132y_442 + 28y_443 + 76y_444 + 98y_445 + 58y_446 + 34y_447 + 132y_448 + 32y_449 + 28y_450 + 64y_451 + 72y_452 + 8y_453 + 26y_454 + 8y_455 + 130y_456 + 6y_457 + 64y_458 + 98y_459 + 28y_460 + 16y_461 + 34y_462 + 6y_463 + 2y_464 + 8y_465 + 42y_466 + 16y_467 + 28y_468 + 2y_469 + 6y_470 + 8y_471 + 28y_472 + 2y_473 + 74y_474 + 118y_475 + 62y_476 + 112y_477 + 84y_478 + 98y_479 + 2y_480 + 26y_481 + 58y_482 + 132y_483 + 32y_484 + 54y_485 + 42y_486 + 2y_487 + 28y_488 + 8y_489 + 16y_490 + 122y_491 + 24y_492 + 10y_493 + 77y_494 + 2y_495 + 158y_496 + 32y_497 + 28y_498 + 32y_499 + 54y_500 + 70y_501 + 60y_502 + 98y_503 + 140y_504 + 98y_505 + 8y_506 + 16y_507 + 64y_508 + 26y_509 + 8y_510 + 6y_511 + 18y_512 + 24y_513 + 6y_514 + 36y_515 + 28y_516 + 98y_517 + 8y_518 + 14y_519 + 72y_520 + 4y_521 + 52y_522 + 158y_523 + 6y_524 + 24y_525 + 36y_526 + 112y_527 + 54y_528 + 68y_529 + 102y_530 + 164y_531 + 4y_532
Subject To
x_533 = 5
x_534 = 1
x_535 = 1
x_536 = 1
x_537 = 1
x_538 = 1
x_1 - 6y_1 <= 0
x_2 - 6y_2 <= 0
x_3 - 6y_3 <= 0
x_4 - 6y_4 <= 0
x_5 - 6y_5 <= 0
x_6 - 6y_6 <= 0
x_7 - 6y_7 <= 0
x_8 - 6y_8 <= 0
x_9 - 6y_9 <= 0
x_10 - 6y_10 <= 0
x_11 - 6y_11 <= 0
x_12 - 6y_12 <= 0
x_13 - 6y_13 <= 0
x_14 - 6y_14 <= 0
x_15 - 6y_15 <= 0
x_16 - 6y_16 <= 0
x_17 - 6y_17 <= 0
x_18 - 6y_18 <= 0
x_19 - 6y_19 <= 0
x_20 - 6y_20 <= 0
x_21 - 6y_21 <= 0
x_22 - 6y_22 <= 0
x_23 - 6y_23 <= 0
x_24 - 6y_24 <= 0
x_25 - 6y_25 <= 0
x_26 - 6y_26 <= 0
x_27 - 6y_27 <= 0
x_28 - 6y_28 <= 0
x_29 - 6y_29 <= 0
x_30 - 6y_30 <= 0
x_31 - 6y_31 <= 0
x_32 - 6y_32 <= 0
x_33 - 6y_33 <= 0
x_34 - 6y_34 <= 0
x_35 - 6y_35 <= 0
x_36 - 6y_36 <= 0
x_37 - 6y_37 <= 0
x_38 - 6y_38 <= 0
x_39 - 6y_39 <= 0
x_40 - 6y_40 <= 0
x_41 - 6y_41 <= 0
x_42 - 6y_42 <= 0
x_43 - 6y_43 <= 0
x_44 - 6y_44 <= 0
x_45 - 6y_45 <= 0
x_46 - 6y_46 <= 0
x_47 - 6y_47 <= 0
x_48 - 6y_48 <= 0
x_49 - 6y_49 <= 0
x_50 - 6y_50 <= 0
x_51 - 6y_51 <= 0
x_52 - 6y_52 <= 0
x_53 - 6y_53 <= 0
x_54 - 6y_54 <= 0
x_55 - 6y_55 <= 0
x_56 - 6y_56 <= 0
x_57 - 6y_57 <= 0
x_58 - 6y_58 <= 0
x_59 - 6y_59 <= 0
x_60 - 6y_60 <= 0
x_61 - 6y_61 <= 0
x_62 - 6y_62 <= 0
x_63 - 6y_63 <= 0
x_64 - 6y_64 <= 0
x_65 - 6y_65 <= 0
x_66 - 6y_66 <= 0
x_67 - 6y_67 <= 0
x_68 - 6y_68 <= 0
x_69 - 6y_69 <= 0
x_70 - 6y_70 <= 0
x_71 - 6y_71 <= 0
x_72 - 6y_72 <= 0
x_73 - 6y_73 <= 0
x_74 - 6y_74 <= 0
x_75 - 6y_75 <= 0
x_76 - 6y_76 <= 0
x_77 - 6y_77 <= 0
x_78 - 6y_78 <= 0
x_79 - 6y_79 <= 0
x_80 - 6y_80 <= 0
x_81 - 6y_81 <= 0
x_82 - 6y_82 <= 0
x_83 - 6y_83 <= 0
x_84 - 6y_84 <= 0
x_85 - 6y_85 <= 0
x_86 - 6y_86 <= 0
x_87 - 6y_87 <= 0
x_88 - 6y_88 <= 0
x_89 - 6y_89 <= 0
x_90 - 6y_90 <= 0
x_91 - 6y_91 <= 0
x_92 - 6y_92 <= 0
x_93 - 6y_93 <= 0
x_94 - 6y_94 <= 0
x_95 - 6y_95 <= 0
x_96 - 6y_96 <= 0
x_97 - 6y_97 <= 0
x_98 - 6y_98 <= 0
x_99 - 6y_99 <= 0
x_100 - 6y_100 <= 0
x_101 - 6y_101 <= 0
x_102 - 6y_102 <= 0
x_103 - 6y_103 <= 0
x_104 - 6y_104 <= 0
x_105 - 6y_105 <= 0
x_106 - 6y_106 <= 0
x_107 - 6y_107 <= 0
x_108 - 6y_108 <= 0
x_109 - 6y_109 <= 0
x_110 - 6y_110 <= 0
x_111 - 6y_111 <= 0
x_112 - 6y_112 <= 0
x_113 - 6y_113 <= 0
x_114 - 6y_114 <= 0
x_115 - 6y_115 <= 0
x_116 - 6y_116 <= 0
x_117 - 6y_117 <= 0
x_118 - 6y_118 <= 0
x_119 - 6y_119 <= 0
x_120 - 6y_120 <= 0
x_121 - 6y_121 <= 0
x_122 - 6y_122 <= 0
x_123 - 6y_123 <= 0
x_124 - 6y_124 <= 0
x_125 - 6y_125 <= 0
x_126 - 6y_126 <= 0
x_127 - 6y_127 <= 0
x_128 - 6y_128 <= 0
x_129 - 6y_129 <= 0
x_130 - 6y_130 <= 0
x_131 - 6y_131 <= 0
x_132 - 6y_132 <= 0
x_133 - 6y_133 <= 0
x_134 - 6y_134 <= 0
x_135 - 6y_135 <= 0
x_136 - 6y_136 <= 0
x_137 - 6y_137 <= 0
x_138 - 6y_138 <= 0
x_139 - 6y_139 <= 0
x_140 - 6y_140 <= 0
x_141 - 6y_141 <= 0
x_142 - 6y_142 <= 0
x_143 - 6y_143 <= 0
x_144 - 6y_144 <= 0
x_145 - 6y_145 <= 0
x_146 - 6y_146 <= 0
x_147 - 6y_147 <= 0
x_148 - 6y_148 <= 0
x_149 - 6y_149 <= 0
x_150 - 6y_150 <= 0
x_151 - 6y_151 <= 0
x_152 - 6y_152 <= 0
x_153 - 6y_153 <= 0
x_154 - 6y_154 <= 0
x_155 - 6y_155 <= 0
x_156 - 6y_156 <= 0
x_157 - 6y_157 <= 0
x_158 - 6y_158 <= 0
x_159 - 6y_159 <= 0
x_160 - 6y_160 <= 0
x_161 - 6y_161 <= 0
x_162 - 6y_162 <= 0
x_163 - 6y_163 <= 0
x_164 - 6y_164 <= 0
x_165 - 6y_165 <= 0
x_166 - 6y_166 <= 0
x_167 - 6y_167 <= 0
x_168 - 6y_168 <= 0
x_169 - 6y_169 <= 0
x_170 - 6y_170 <= 0
x_171 - 6y_171 <= 0
x_172 - 6y_172 <= 0
x_173 - 6y_173 <= 0
x_174 - 6y_174 <= 0
x_175 - 6y_175 <= 0
x_176 - 6y_176 <= 0
x_177 - 6y_177 <= 0
x_178 - 6y_178 <= 0
x_179 - 6y_179 <= 0
x_180 - 6y_180 <= 0
x_181 - 6y_181 <= 0
x_182 - 6y_182 <= 0
x_183 - 6y_183 <= 0
x_184 - 6y_184 <= 0
x_185 - 6y_185 <= 0
x_186 - 6y_186 <= 0
x_187 - 6y_187 <= 0
x_188 - 6y_188 <= 0
x_189 - 6y_189 <= 0
x_190 - 6y_190 <= 0
x_191 - 6y_191 <= 0
x_192 - 6y_192 <= 0
x_193 - 6y_193 <= 0
x_194 - 6y_194 <= 0
x_195 - 6y_195 <= 0
x_196 - 6y_196 <= 0
x_197 - 6y_197 <= 0
x_198 - 6y_198 <= 0
x_199 - 6y_199 <= 0
x_200 - 6y_200 <= 0
x_201 - 6y_201 <= 0
x_202 - 6y_202 <= 0
x_203 - 6y_203 <= 0
x_204 - 6y_204 <= 0
x_205 - 6y_205 <= 0
x_206 - 6y_206 <= 0
x_207 - 6y_207 <= 0
x_208 - 6y_208 <= 0
x_209 - 6y_209 <= 0
x_210 - 6y_210 <= 0
x_211 - 6y_211 <= 0
x_212 - 6y_212 <= 0
x_213 - 6y_213 <= 0
x_214 - 6y_214 <= 0
x_215 - 6y_215 <= 0
x_216 - 6y_216 <= 0
x_217 - 6y_217 <= 0
x_218 - 6y_218 <= 0
x_219 - 6y_219 <= 0
x_220 - 6y_220 <= 0
x_221 - 6y_221 <= 0
x_222 - 6y_222 <= 0
x_223 - 6y_223 <= 0
x_224 - 6y_224 <= 0
x_225 - 6y_225 <= 0
x_226 - 6y_226 <= 0
x_227 - 6y_227 <= 0
x_228 - 6y_228 <= 0
x_229 - 6y_229 <= 0
x_230 - 6y_230 <= 0
x_231 - 6y_231 <= 0
x_232 - 6y_232 <= 0
x_233 - 6y_233 <= 0
x_234 - 6y_234 <= 0
x_235 - 6y_235 <= 0
x_236 - 6y_236 <= 0
x_237 - 6y_237 <= 0
x_238 - 6y_238 <= 0
x_239 - 6y_239 <= 0
x_240 - 6y_240 <= 0
x_241 - 6y_241 <= 0
x_242 - 6y_242 <= 0
x_243 - 6y_243 <= 0
x_244 - 6y_244 <= 0
x_245 - 6y_245 <= 0
x_246 - 6y_246 <= 0
x_247 - 6y_247 <= 0
x_248 - 6y_248 <= 0
x_249 - 6y_249 <= 0
x_250 - 6y_250 <= 0
x_251 - 6y_251 <= 0
x_252 - 6y_252 <= 0
x_253 - 6y_253 <= 0
x_254 - 6y_254 <= 0
x_255 - 6y_255 <= 0
x_256 - 6y_256 <= 0
x_257 - 6y_257 <= 0
x_258 - 6y_258 <= 0
x_259 - 6y_259 <= 0
x_260 - 6y_260 <= 0
x_261 - 6y_261 <= 0
x_262 - 6y_262 <= 0
x_263 - 6y_263 <= 0
x_264 - 6y_264 <= 0
x_265 - 6y_265 <= 0
x_266 - 6y_266 <= 0
x_267 - 6y_267 <= 0
x_268 - 6y_268 <= 0
x_269 - 6y_269 <= 0
x_270 - 6y_270 <= 0
x_271 - 6y_271 <= 0
x_272 - 6y_272 <= 0
x_273 - 6y_273 <= 0
x_274 - 6y_274 <= 0
x_275 - 6y_275 <= 0
x_276 - 6y_276 <= 0
x_277 - 6y_277 <= 0
x_278 - 6y_278 <= 0
x_279 - 6y_279 <= 0
x_280 - 6y_280 <= 0
x_281 - 6y_281 <= 0
x_282 - 6y_282 <= 0
x_283 - 6y_283 <= 0
x_284 - 6y_284 <= 0
x_285 - 6y_285 <= 0
x_286 - 6y_286 <= 0
x_287 - 6y_287 <= 0
x_288 - 6y_288 <= 0
x_289 - 6y_289 <= 0
x_290 - 6y_290 <= 0
x_291 - 6y_291 <= 0
x_292 - 6y_292 <= 0
x_293 - 6y_293 <= 0
x_294 - 6y_294 <= 0
x_295 - 6y_295 <= 0
x_296 - 6y_296 <= 0
x_297 - 6y_297 <= 0
x_298 - 6y_298 <= 0
x_299 - 6y_299 <= 0
x_300 - 6y_300 <= 0
x_301 - 6y_301 <= 0
x_302 - 6y_302 <= 0
x_303 - 6y_303 <= 0
x_304 - 6y_304 <= 0
x_305 - 6y_305 <= 0
x_306 - 6y_306 <= 0
x_307 - 6y_307 <= 0
x_308 - 6y_308 <= 0
x_309 - 6y_309 <= 0
x_310 - 6y_310 <= 0
x_311 - 6y_311 <= 0
x_312 - 6y_312 <= 0
x_313 - 6y_313 <= 0
x_314 - 6y_314 <= 0
x_315 - 6y_315 <= 0
x_316 - 6y_316 <= 0
x_317 - 6y_317 <= 0
x_318 - 6y_318 <= 0
x_319 - 6y_319 <= 0
x_320 - 6y_320 <= 0
x_321 - 6y_321 <= 0
x_322 - 6y_322 <= 0
x_323 - 6y_323 <= 0
x_324 - 6y_324 <= 0
x_325 - 6y_325 <= 0
x_326 - 6y_326 <= 0
x_327 - 6y_327 <= 0
x_328 - 6y_328 <= 0
x_329 - 6y_329 <= 0
x_330 - 6y_330 <= 0
x_331 - 6y_331 <= 0
x_332 - 6y_332 <= 0
x_333 - 6y_333 <= 0
x_334 - 6y_334 <= 0
x_335 - 6y_335 <= 0
x_336 - 6y_336 <= 0
x_337 - 6y_337 <= 0
x_338 - 6y_338 <= 0
x_339 - 6y_339 <= 0
x_340 - 6y_340 <= 0
x_341 - 6y_341 <= 0
x_342 - 6y_342 <= 0
x_343 - 6y_343 <= 0
x_344 - 6y_344 <= 0
x_345 - 6y_345 <= 0
x_346 - 6y_346 <= 0
x_347 - 6y_347 <= 0
x_348 - 6y_348 <= 0
x_349 - 6y_349 <= 0
x_350 - 6y_350 <= 0
x_351 - 6y_351 <= 0
x_352 - 6y_352 <= 0
x_353 - 6y_353 <= 0
x_354 - 6y_354 <= 0
x_355 - 6y_355 <= 0
x_356 - 6y_356 <= 0
x_357 - 6y_357 <= 0
x_358 - 6y_358 <= 0
x_359 - 6y_359 <= 0
x_360 - 6y_360 <= 0
x_361 - 6y_361 <= 0
x_362 - 6y_362 <= 0
x_363 - 6y_363 <= 0
x_364 - 6y_364 <= 0
x_365 - 6y_365 <= 0
x_366 - 6y_366 <= 0
x_367 - 6y_367 <= 0
x_368 - 6y_368 <= 0
x_369 - 6y_369 <= 0
x_370 - 6y_370 <= 0
x_371 - 6y_371 <= 0
x_372 - 6y_372 <= 0
x_373 - 6y_373 <= 0
x_374 - 6y_374 <= 0
x_375 - 6y_375 <= 0
x_376 - 6y_376 <= 0
x_377 - 6y_377 <= 0
x_378 - 6y_378 <= 0
x_379 - 6y_379 <= 0
x_380 - 6y_380 <= 0
x_381 - 6y_381 <= 0
x_382 - 6y_382 <= 0
x_383 - 6y_383 <= 0
x_384 - 6y_384 <= 0
x_385 - 6y_385 <= 0
x_386 - 6y_386 <= 0
x_387 - 6y_387 <= 0
x_388 - 6y_388 <= 0
x_389 - 6y_389 <= 0
x_390 - 6y_390 <= 0
x_391 - 6y_391 <= 0
x_392 - 6y_392 <= 0
x_393 - 6y_393 <= 0
x_394 - 6y_394 <= 0
x_395 - 6y_395 <= 0
x_396 - 6y_396 <= 0
x_397 - 6y_397 <= 0
x_398 - 6y_398 <= 0
x_399 - 6y_399 <= 0
x_400 - 6y_400 <= 0
x_401 - 6y_401 <= 0
x_402 - 6y_402 <= 0
x_403 - 6y_403 <= 0
x_404 - 6y_404 <= 0
x_405 - 6y_405 <= 0
x_406 - 6y_406 <= 0
x_407 - 6y_407 <= 0
x_408 - 6y_408 <= 0
x_409 - 6y_409 <= 0
x_410 - 6y_410 <= 0
x_411 - 6y_411 <= 0
x_412 - 6y_412 <= 0
x_413 - 6y_413 <= 0
x_414 - 6y_414 <= 0
x_415 - 6y_415 <= 0
x_416 - 6y_416 <= 0
x_417 - 6y_417 <= 0
x_418 - 6y_418 <= 0
x_419 - 6y_419 <= 0
x_420 - 6y_420 <= 0
x_421 - 6y_421 <= 0
x_422 - 6y_422 <= 0
x_423 - 6y_423 <= 0
x_424 - 6y_424 <= 0
x_425 - 6y_425 <= 0
x_426 - 6y_426 <= 0
x_427 - 6y_427 <= 0
x_428 - 6y_428 <= 0
x_429 - 6y_429 <= 0
x_430 - 6y_430 <= 0
x_431 - 6y_431 <= 0
x_432 - 6y_432 <= 0
x_433 - 6y_433 <= 0
x_434 - 6y_434 <= 0
x_435 - 6y_435 <= 0
x_436 - 6y_436 <= 0
x_437 - 6y_437 <= 0
x_438 - 6y_438 <= 0
x_439 - 6y_439 <= 0
x_440 - 6y_440 <= 0
x_441 - 6y_441 <= 0
x_442 - 6y_442 <= 0
x_443 - 6y_443 <= 0
x_444 - 6y_444 <= 0
x_445 - 6y_445 <= 0
x_446 - 6y_446 <= 0
x_447 - 6y_447 <= 0
x_448 - 6y_448 <= 0
x_449 - 6y_449 <= 0
x_450 - 6y_450 <= 0
x_451 - 6y_451 <= 0
x_452 - 6y_452 <= 0
x_453 - 6y_453 <= 0
x_454 - 6y_454 <= 0
x_455 - 6y_455 <= 0
x_456 - 6y_456 <= 0
x_457 - 6y_457 <= 0
x_458 - 6y_458 <= 0
x_459 - 6y_459 <= 0
x_460 - 6y_460 <= 0
x_461 - 6y_461 <= 0
x_462 - 6y_462 <= 0
x_463 - 6y_463 <= 0
x_464 - 6y_464 <= 0
x_465 - 6y_465 <= 0
x_466 - 6y_466 <= 0
x_467 - 6y_467 <= 0
x_468 - 6y_468 <= 0
x_469 - 6y_469 <= 0
x_470 - 6y_470 <= 0
x_471 - 6y_471 <= 0
x_472 - 6y_472 <= 0
x_473 - 6y_473 <= 0
x_474 - 6y_474 <= 0
x_475 - 6y_475 <= 0
x_476 - 6y_476 <= 0
x_477 - 6y_477 <= 0
x_478 - 6y_478 <= 0
x_479 - 6y_479 <= 0
x_480 - 6y_480 <= 0
x_481 - 6y_481 <= 0
x_482 - 6y_482 <= 0
x_483 - 6y_483 <= 0
x_484 - 6y_484 <= 0
x_485 - 6y_485 <= 0
x_486 - 6y_486 <= 0
x_487 - 6y_487 <= 0
x_488 - 6y_488 <= 0
x_489 - 6y_489 <= 0
x_490 - 6y_490 <= 0
x_491 - 6y_491 <= 0
x_492 - 6y_492 <= 0
x_493 - 6y_493 <= 0
x_494 - 6y_494 <= 0
x_495 - 6y_495 <= 0
x_496 - 6y_496 <= 0
x_497 - 6y_497 <= 0
x_498 - 6y_498 <= 0
x_499 - 6y_499 <= 0
x_500 - 6y_500 <= 0
x_501 - 6y_501 <= 0
x_502 - 6y_502 <= 0
x_503 - 6y_503 <= 0
x_504 - 6y_504 <= 0
x_505 - 6y_505 <= 0
x_506 - 6y_506 <= 0
x_507 - 6y_507 <= 0
x_508 - 6y_508 <= 0
x_509 - 6y_509 <= 0
x_510 - 6y_510 <= 0
x_511 - 6y_511 <= 0
x_512 - 6y_512 <= 0
x_513 - 6y_513 <= 0
x_514 - 6y_514 <= 0
x_515 - 6y_515 <= 0
x_516 - 6y_516 <= 0
x_517 - 6y_517 <= 0
x_518 - 6y_518 <= 0
x_519 - 6y_519 <= 0
x_520 - 6y_520 <= 0
x_521 - 6y_521 <= 0
x_522 - 6y_522 <= 0
x_523 - 6y_523 <= 0
x_524 - 6y_524 <= 0
x_525 - 6y_525 <= 0
x_526 - 6y_526 <= 0
x_527 - 6y_527 <= 0
x_528 - 6y_528 <= 0
x_529 - 6y_529 <= 0
x_530 - 6y_530 <= 0
x_531 - 6y_531 <= 0
x_532 - 6y_532 <= 0
x_2 - x_155 +  x_1 - x_111 = 0
x_5 - x_76 +  x_3 - x_319 +  x_4 - x_241 = 0
x_6 - x_377 +  x_7 - x_175 +  x_8 - x_349 = 0
x_12 - x_406 +  x_11 - x_104 +  x_10 - x_225 +  x_9 - x_65 = 0
x_15 - x_174 +  x_13 - x_368 +  x_14 - x_326 +  x_16 - x_380 = 0
x_20 - x_403 +  x_19 - x_439 +  x_17 - x_54 +  x_18 - x_193 = 0
x_21 - x_44 +  x_22 - x_165 +  x_23 - x_376 = 0
x_26 - x_124 +  x_24 - x_231 +  x_25 - x_95 +  x_27 - x_141 = 0
x_29 - x_32 +  x_30 - x_409 +  x_28 - x_474 = 0
x_31 - x_66 +  x_32 - x_29 +  x_33 - x_105 = 0
x_36 - x_431 +  x_35 - x_88 +  x_34 - x_496 = 0
x_37 - x_329 +  x_38 - x_414 +  x_39 - x_43 = 0
x_42 - x_161 +  x_43 - x_39 +  x_40 - x_57 +  x_41 - x_244 = 0
x_46 - x_98 +  x_44 - x_21 +  x_45 - x_314 = 0
x_47 - x_260 +  x_48 - x_85 +  x_49 - x_458 = 0
x_51 - x_197 +  x_52 - x_308 +  x_50 - x_481 = 0
x_53 - x_139 +  x_55 - x_232 +  x_56 - x_383 +  x_54 - x_17 = 0
x_58 - x_128 +  x_59 - x_449 +  x_60 - x_119 +  x_57 - x_40 = 0
x_64 - x_298 +  x_61 - x_440 +  x_63 - x_100 +  x_62 - x_287 = 0
x_66 - x_31 +  x_65 - x_9 +  x_67 - x_91 = 0
x_69 - x_234 +  x_68 - x_391 - x_534 = 0
x_72 - x_184 +  x_73 - x_266 +  x_70 - x_523 +  x_71 - x_220 = 0
x_75 - x_83 +  x_74 - x_456 +  x_76 - x_5 = 0
x_77 - x_89 +  x_79 - x_485 +  x_78 - x_171 = 0
x_82 - x_121 +  x_80 - x_464 +  x_81 - x_489 = 0
x_86 - x_528 +  x_83 - x_75 +  x_84 - x_239 +  x_85 - x_48 = 0
x_87 - x_294 +  x_88 - x_35 +  x_89 - x_77 = 0
x_90 - x_226 +  x_91 - x_67 = 0
x_93 - x_504 +  x_94 - x_320 +  x_92 - x_302 = 0
x_95 - x_25 +  x_97 - x_392 +  x_98 - x_46 +  x_96 - x_443 = 0
x_101 - x_126 +  x_100 - x_63 +  x_102 - x_159 +  x_99 - x_334 = 0
x_105 - x_33 +  x_106 - x_208 +  x_103 - x_473 +  x_104 - x_11 = 0
x_107 - x_480 +  x_110 - x_146 +  x_109 - x_305 +  x_108 - x_342 = 0
x_113 - x_187 +  x_112 - x_133 +  x_111 - x_1 = 0
x_533 +  x_115 - x_522 +  x_114 - x_316 = 0
x_117 - x_430 +  x_119 - x_60 +  x_118 - x_221 +  x_116 - x_497 = 0
x_121 - x_82 +  x_122 - x_507 +  x_120 - x_321 +  x_123 - x_374 = 0
x_127 - x_384 +  x_125 - x_442 +  x_124 - x_26 +  x_126 - x_101 = 0
x_128 - x_58 +  x_129 - x_245 +  x_131 - x_223 +  x_130 - x_264 = 0
x_132 - x_410 +  x_134 - x_271 +  x_133 - x_112 = 0
x_137 - x_185 +  x_138 - x_398 +  x_135 - x_524 +  x_136 - x_478 = 0
x_139 - x_53 +  x_142 - x_358 +  x_140 - x_386 +  x_141 - x_27 = 0
x_143 - x_213 +  x_144 - x_345 +  x_145 - x_509 +  x_146 - x_110 = 0
x_148 - x_236 +  x_149 - x_327 +  x_147 - x_172 = 0
x_151 - x_516 +  x_150 - x_459 +  x_153 - x_412 +  x_152 - x_420 = 0
x_156 - x_351 +  x_154 - x_417 +  x_155 - x_2 = 0
x_158 - x_265 +  x_159 - x_102 +  x_160 - x_301 +  x_157 - x_182 = 0
x_163 - x_330 +  x_161 - x_42 +  x_162 - x_448 = 0
x_164 - x_340 +  x_165 - x_22 +  x_166 - x_332 +  x_167 - x_393 = 0
x_169 - x_296 +  x_170 - x_500 +  x_171 - x_78 +  x_168 - x_490 = 0
x_172 - x_147 +  x_175 - x_7 +  x_173 - x_303 +  x_174 - x_15 = 0
x_176 - x_338 +  x_177 - x_331 +  x_178 - x_531 = 0
x_181 - x_204 +  x_180 - x_262 +  x_179 - x_401 = 0
x_184 - x_72 +  x_185 - x_137 +  x_183 - x_336 +  x_182 - x_157 = 0
x_186 - x_421 +  x_187 - x_113 +  x_188 - x_413 = 0
x_190 - x_415 +  x_189 - x_388 +  x_191 - x_285 = 0
x_194 - x_212 +  x_192 - x_324 +  x_193 - x_18 = 0
x_196 - x_466 +  x_195 - x_469 +  x_197 - x_51 +  x_198 - x_488 = 0
x_200 - x_510 +  x_199 - x_227 +  x_201 - x_218 +  x_202 - x_470 = 0
x_203 - x_255 +  x_204 - x_181 +  x_205 - x_325 = 0
x_207 - x_404 +  x_206 - x_268 +  x_208 - x_106 +  x_209 - x_425 = 0
x_210 - x_339 +  x_211 - x_437 +  x_212 - x_194 = 0
x_213 - x_143 +  x_214 - x_428 +  x_215 - x_454 = 0
x_219 - x_263 +  x_216 - x_455 +  x_218 - x_201 +  x_217 - x_291 = 0
x_221 - x_118 +  x_222 - x_354 +  x_223 - x_131 +  x_220 - x_71 = 0
x_224 - x_483 +  x_226 - x_90 +  x_225 - x_10 = 0
x_228 - x_242 +  x_229 - x_261 +  x_227 - x_199 +  x_230 - x_453 = 0
x_234 - x_69 +  x_233 - x_438 +  x_231 - x_24 +  x_232 - x_55 = 0
x_235 - x_418 +  x_238 - x_505 +  x_237 - x_518 +  x_236 - x_148 = 0
x_241 - x_4 +  x_240 - x_278 +  x_239 - x_84 = 0
-x_536 +  x_243 - x_251 +  x_242 - x_228 = 0
x_244 - x_41 +  x_247 - x_416 +  x_245 - x_129 +  x_246 - x_286 = 0
x_248 - x_512 +  x_250 - x_279 +  x_249 - x_395 = 0
x_253 - x_317 +  x_252 - x_254 +  x_251 - x_243 = 0
x_255 - x_203 +  x_256 - x_275 +  x_254 - x_252 = 0
x_257 - x_357 +  x_259 - x_529 +  x_258 - x_385 = 0
x_263 - x_219 +  x_261 - x_229 +  x_262 - x_180 +  x_260 - x_47 = 0
x_267 - x_284 +  x_266 - x_73 +  x_265 - x_158 +  x_264 - x_130 = 0
-x_538 +  x_268 - x_206 +  x_269 - x_494 = 0
x_271 - x_134 +  x_270 - x_444 +  x_272 - x_344 = 0
x_274 - x_341 +  x_275 - x_256 +  x_273 - x_530 +  x_276 - x_318 = 0
x_277 - x_397 +  x_278 - x_240 +  x_279 - x_250 = 0
x_281 - x_322 +  x_280 - x_434 +  x_282 - x_304 = 0
x_284 - x_267 +  x_286 - x_246 +  x_285 - x_191 +  x_283 - x_299 = 0
x_288 - x_312 +  x_287 - x_62 +  x_289 - x_390 = 0
x_290 - x_487 +  x_292 - x_465 +  x_291 - x_217 +  x_293 - x_472 = 0
x_297 - x_432 +  x_295 - x_360 +  x_296 - x_169 +  x_294 - x_87 = 0
x_301 - x_160 +  x_298 - x_64 +  x_299 - x_283 +  x_300 - x_389 = 0
x_303 - x_173 +  x_302 - x_92 +  x_304 - x_282 = 0
x_308 - x_52 +  x_307 - x_471 +  x_306 - x_511 +  x_305 - x_109 = 0
x_311 - x_422 +  x_310 - x_519 +  x_309 - x_419 = 0
x_314 - x_45 +  x_313 - x_441 +  x_312 - x_288 = 0
x_317 - x_253 +  x_318 - x_276 +  x_315 - x_452 +  x_316 - x_114 = 0
x_321 - x_120 +  x_320 - x_94 +  x_322 - x_281 +  x_319 - x_3 = 0
x_325 - x_205 +  x_323 - x_400 +  x_324 - x_192 = 0
x_327 - x_149 +  x_326 - x_14 +  x_328 - x_352 = 0
x_329 - x_37 +  x_330 - x_163 = 0
x_331 - x_177 +  x_333 - x_375 +  x_332 - x_166 = 0
x_335 - x_502 +  x_336 - x_183 +  x_334 - x_99 +  x_337 - x_387 = 0
x_340 - x_164 +  x_338 - x_176 +  x_339 - x_210 +  x_341 - x_274 = 0
x_342 - x_108 +  x_344 - x_272 +  x_343 - x_346 = 0
x_346 - x_343 +  x_345 - x_144 +  x_347 - x_429 = 0
-x_537 +  x_348 - x_423 +  x_349 - x_8 = 0
x_350 - x_369 +  x_352 - x_328 +  x_351 - x_156 = 0
x_356 - x_433 +  x_355 - x_361 +  x_353 - x_525 +  x_354 - x_222 = 0
x_357 - x_257 +  x_359 - x_382 +  x_358 - x_142 = 0
x_361 - x_355 +  x_363 - x_491 +  x_360 - x_295 +  x_362 - x_513 = 0
x_366 - x_506 +  x_364 - x_372 +  x_365 - x_517 +  x_367 - x_460 = 0
x_368 - x_13 +  x_369 - x_350 +  x_370 - x_407 = 0
x_372 - x_364 +  x_371 - x_486 +  x_373 - x_468 +  x_374 - x_123 = 0
x_376 - x_23 +  x_375 - x_333 = 0
x_380 - x_16 +  x_378 - x_475 +  x_377 - x_6 +  x_379 - x_408 = 0
x_383 - x_56 +  x_381 - x_402 +  x_382 - x_359 = 0
x_386 - x_140 +  x_387 - x_337 +  x_384 - x_127 +  x_385 - x_258 = 0
x_388 - x_189 +  x_389 - x_300 +  x_390 - x_289 = 0
x_392 - x_97 +  x_391 - x_68 +  x_393 - x_167 = 0
x_396 - x_492 +  x_395 - x_249 +  x_394 - x_493 = 0
x_399 - x_514 +  x_398 - x_138 +  x_397 - x_277 = 0
x_400 - x_323 +  x_402 - x_381 +  x_403 - x_20 +  x_401 - x_179 = 0
x_404 - x_207 +  x_406 - x_12 +  x_405 - x_501 = 0
x_407 - x_370 +  x_408 - x_379 +  x_409 - x_30 = 0
x_413 - x_188 +  x_410 - x_132 +  x_411 - x_445 +  x_412 - x_153 = 0
x_414 - x_38 +  x_415 - x_190 +  x_416 - x_247 = 0
x_417 - x_154 +  x_418 - x_235 +  x_419 - x_309 = 0
x_420 - x_152 +  x_421 - x_186 +  x_422 - x_311 = 0
x_426 - x_476 +  x_425 - x_209 +  x_424 - x_435 +  x_423 - x_348 = 0
x_428 - x_214 +  x_427 - x_520 +  x_429 - x_347 = 0
x_431 - x_36 +  x_432 - x_297 +  x_433 - x_356 +  x_430 - x_117 = 0
x_436 - x_495 +  x_435 - x_424 +  x_434 - x_280 = 0
x_438 - x_233 +  x_437 - x_211 +  x_439 - x_19 = 0
x_442 - x_125 +  x_441 - x_313 +  x_440 - x_61 +  x_443 - x_96 = 0
x_444 - x_270 +  x_446 - x_482 +  x_447 - x_462 +  x_445 - x_411 = 0
x_448 - x_162 +  x_449 - x_59 +  x_450 - x_498 = 0
x_451 - x_508 +  x_453 - x_230 +  x_452 - x_315 +  x_454 - x_215 = 0
x_455 - x_216 +  x_457 - x_463 +  x_456 - x_74 +  x_458 - x_49 = 0
x_459 - x_150 +  x_462 - x_447 +  x_461 - x_467 +  x_460 - x_367 = 0
x_465 - x_292 +  x_463 - x_457 +  x_464 - x_80 = 0
x_467 - x_461 +  x_466 - x_196 +  x_468 - x_373 = 0
x_469 - x_195 +  x_472 - x_293 +  x_470 - x_202 +  x_471 - x_307 = 0
x_473 - x_103 +  x_475 - x_378 +  x_476 - x_426 +  x_474 - x_28 = 0
x_477 - x_527 +  x_479 - x_503 +  x_478 - x_136 = 0
x_480 - x_107 +  x_481 - x_50 +  x_482 - x_446 = 0
x_483 - x_224 +  x_485 - x_79 +  x_484 - x_499 = 0
x_488 - x_198 +  x_489 - x_81 +  x_487 - x_290 +  x_486 - x_371 = 0
x_492 - x_396 +  x_490 - x_168 +  x_491 - x_363 = 0
x_495 - x_436 +  x_494 - x_269 +  x_493 - x_394 = 0
x_496 - x_34 +  x_497 - x_116 +  x_498 - x_450 = 0
x_500 - x_170 +  x_501 - x_405 +  x_499 - x_484 = 0
x_503 - x_479 - x_535 +  x_502 - x_335 = 0
x_506 - x_366 +  x_504 - x_93 +  x_505 - x_238 +  x_507 - x_122 = 0
x_509 - x_145 +  x_511 - x_306 +  x_508 - x_451 +  x_510 - x_200 = 0
x_512 - x_248 +  x_513 - x_362 +  x_515 - x_526 +  x_514 - x_399 = 0
x_517 - x_365 +  x_519 - x_310 +  x_516 - x_151 +  x_518 - x_237 = 0
x_521 - x_532 +  x_520 - x_427 +  x_522 - x_115 = 0
x_523 - x_70 +  x_525 - x_353 +  x_526 - x_515 +  x_524 - x_135 = 0
x_527 - x_477 +  x_529 - x_259 +  x_528 - x_86 = 0
x_532 - x_521 +  x_530 - x_273 +  x_531 - x_178 = 0
Bounds
x_1 >= 0
x_2 >= 0
x_3 >= 0
x_4 >= 0
x_5 >= 0
x_6 >= 0
x_7 >= 0
x_8 >= 0
x_9 >= 0
x_10 >= 0
x_11 >= 0
x_12 >= 0
x_13 >= 0
x_14 >= 0
x_15 >= 0
x_16 >= 0
x_17 >= 0
x_18 >= 0
x_19 >= 0
x_20 >= 0
x_21 >= 0
x_22 >= 0
x_23 >= 0
x_24 >= 0
x_25 >= 0
x_26 >= 0
x_27 >= 0
x_28 >= 0
x_29 >= 0
x_30 >= 0
x_31 >= 0
x_32 >= 0
x_33 >= 0
x_34 >= 0
x_35 >= 0
x_36 >= 0
x_37 >= 0
x_38 >= 0
x_39 >= 0
x_40 >= 0
x_41 >= 0
x_42 >= 0
x_43 >= 0
x_44 >= 0
x_45 >= 0
x_46 >= 0
x_47 >= 0
x_48 >= 0
x_49 >= 0
x_50 >= 0
x_51 >= 0
x_52 >= 0
x_53 >= 0
x_54 >= 0
x_55 >= 0
x_56 >= 0
x_57 >= 0
x_58 >= 0
x_59 >= 0
x_60 >= 0
x_61 >= 0
x_62 >= 0
x_63 >= 0
x_64 >= 0
x_65 >= 0
x_66 >= 0
x_67 >= 0
x_68 >= 0
x_69 >= 0
x_70 >= 0
x_71 >= 0
x_72 >= 0
x_73 >= 0
x_74 >= 0
x_75 >= 0
x_76 >= 0
x_77 >= 0
x_78 >= 0
x_79 >= 0
x_80 >= 0
x_81 >= 0
x_82 >= 0
x_83 >= 0
x_84 >= 0
x_85 >= 0
x_86 >= 0
x_87 >= 0
x_88 >= 0
x_89 >= 0
x_90 >= 0
x_91 >= 0
x_92 >= 0
x_93 >= 0
x_94 >= 0
x_95 >= 0
x_96 >= 0
x_97 >= 0
x_98 >= 0
x_99 >= 0
x_100 >= 0
x_101 >= 0
x_102 >= 0
x_103 >= 0
x_104 >= 0
x_105 >= 0
x_106 >= 0
x_107 >= 0
x_108 >= 0
x_109 >= 0
x_110 >= 0
x_111 >= 0
x_112 >= 0
x_113 >= 0
x_114 >= 0
x_115 >= 0
x_116 >= 0
x_117 >= 0
x_118 >= 0
x_119 >= 0
x_120 >= 0
x_121 >= 0
x_122 >= 0
x_123 >= 0
x_124 >= 0
x_125 >= 0
x_126 >= 0
x_127 >= 0
x_128 >= 0
x_129 >= 0
x_130 >= 0
x_131 >= 0
x_132 >= 0
x_133 >= 0
x_134 >= 0
x_135 >= 0
x_136 >= 0
x_137 >= 0
x_138 >= 0
x_139 >= 0
x_140 >= 0
x_141 >= 0
x_142 >= 0
x_143 >= 0
x_144 >= 0
x_145 >= 0
x_146 >= 0
x_147 >= 0
x_148 >= 0
x_149 >= 0
x_150 >= 0
x_151 >= 0
x_152 >= 0
x_153 >= 0
x_154 >= 0
x_155 >= 0
x_156 >= 0
x_157 >= 0
x_158 >= 0
x_159 >= 0
x_160 >= 0
x_161 >= 0
x_162 >= 0
x_163 >= 0
x_164 >= 0
x_165 >= 0
x_166 >= 0
x_167 >= 0
x_168 >= 0
x_169 >= 0
x_170 >= 0
x_171 >= 0
x_172 >= 0
x_173 >= 0
x_174 >= 0
x_175 >= 0
x_176 >= 0
x_177 >= 0
x_178 >= 0
x_179 >= 0
x_180 >= 0
x_181 >= 0
x_182 >= 0
x_183 >= 0
x_184 >= 0
x_185 >= 0
x_186 >= 0
x_187 >= 0
x_188 >= 0
x_189 >= 0
x_190 >= 0
x_191 >= 0
x_192 >= 0
x_193 >= 0
x_194 >= 0
x_195 >= 0
x_196 >= 0
x_197 >= 0
x_198 >= 0
x_199 >= 0
x_200 >= 0
x_201 >= 0
x_202 >= 0
x_203 >= 0
x_204 >= 0
x_205 >= 0
x_206 >= 0
x_207 >= 0
x_208 >= 0
x_209 >= 0
x_210 >= 0
x_211 >= 0
x_212 >= 0
x_213 >= 0
x_214 >= 0
x_215 >= 0
x_216 >= 0
x_217 >= 0
x_218 >= 0
x_219 >= 0
x_220 >= 0
x_221 >= 0
x_222 >= 0
x_223 >= 0
x_224 >= 0
x_225 >= 0
x_226 >= 0
x_227 >= 0
x_228 >= 0
x_229 >= 0
x_230 >= 0
x_231 >= 0
x_232 >= 0
x_233 >= 0
x_234 >= 0
x_235 >= 0
x_236 >= 0
x_237 >= 0
x_238 >= 0
x_239 >= 0
x_240 >= 0
x_241 >= 0
x_242 >= 0
x_243 >= 0
x_244 >= 0
x_245 >= 0
x_246 >= 0
x_247 >= 0
x_248 >= 0
x_249 >= 0
x_250 >= 0
x_251 >= 0
x_252 >= 0
x_253 >= 0
x_254 >= 0
x_255 >= 0
x_256 >= 0
x_257 >= 0
x_258 >= 0
x_259 >= 0
x_260 >= 0
x_261 >= 0
x_262 >= 0
x_263 >= 0
x_264 >= 0
x_265 >= 0
x_266 >= 0
x_267 >= 0
x_268 >= 0
x_269 >= 0
x_270 >= 0
x_271 >= 0
x_272 >= 0
x_273 >= 0
x_274 >= 0
x_275 >= 0
x_276 >= 0
x_277 >= 0
x_278 >= 0
x_279 >= 0
x_280 >= 0
x_281 >= 0
x_282 >= 0
x_283 >= 0
x_284 >= 0
x_285 >= 0
x_286 >= 0
x_287 >= 0
x_288 >= 0
x_289 >= 0
x_290 >= 0
x_291 >= 0
x_292 >= 0
x_293 >= 0
x_294 >= 0
x_295 >= 0
x_296 >= 0
x_297 >= 0
x_298 >= 0
x_299 >= 0
x_300 >= 0
x_301 >= 0
x_302 >= 0
x_303 >= 0
x_304 >= 0
x_305 >= 0
x_306 >= 0
x_307 >= 0
x_308 >= 0
x_309 >= 0
x_310 >= 0
x_311 >= 0
x_312 >= 0
x_313 >= 0
x_314 >= 0
x_315 >= 0
x_316 >= 0
x_317 >= 0
x_318 >= 0
x_319 >= 0
x_320 >= 0
x_321 >= 0
x_322 >= 0
x_323 >= 0
x_324 >= 0
x_325 >= 0
x_326 >= 0
x_327 >= 0
x_328 >= 0
x_329 >= 0
x_330 >= 0
x_331 >= 0
x_332 >= 0
x_333 >= 0
x_334 >= 0
x_335 >= 0
x_336 >= 0
x_337 >= 0
x_338 >= 0
x_339 >= 0
x_340 >= 0
x_341 >= 0
x_342 >= 0
x_343 >= 0
x_344 >= 0
x_345 >= 0
x_346 >= 0
x_347 >= 0
x_348 >= 0
x_349 >= 0
x_350 >= 0
x_351 >= 0
x_352 >= 0
x_353 >= 0
x_354 >= 0
x_355 >= 0
x_356 >= 0
x_357 >= 0
x_358 >= 0
x_359 >= 0
x_360 >= 0
x_361 >= 0
x_362 >= 0
x_363 >= 0
x_364 >= 0
x_365 >= 0
x_366 >= 0
x_367 >= 0
x_368 >= 0
x_369 >= 0
x_370 >= 0
x_371 >= 0
x_372 >= 0
x_373 >= 0
x_374 >= 0
x_375 >= 0
x_376 >= 0
x_377 >= 0
x_378 >= 0
x_379 >= 0
x_380 >= 0
x_381 >= 0
x_382 >= 0
x_383 >= 0
x_384 >= 0
x_385 >= 0
x_386 >= 0
x_387 >= 0
x_388 >= 0
x_389 >= 0
x_390 >= 0
x_391 >= 0
x_392 >= 0
x_393 >= 0
x_394 >= 0
x_395 >= 0
x_396 >= 0
x_397 >= 0
x_398 >= 0
x_399 >= 0
x_400 >= 0
x_401 >= 0
x_402 >= 0
x_403 >= 0
x_404 >= 0
x_405 >= 0
x_406 >= 0
x_407 >= 0
x_408 >= 0
x_409 >= 0
x_410 >= 0
x_411 >= 0
x_412 >= 0
x_413 >= 0
x_414 >= 0
x_415 >= 0
x_416 >= 0
x_417 >= 0
x_418 >= 0
x_419 >= 0
x_420 >= 0
x_421 >= 0
x_422 >= 0
x_423 >= 0
x_424 >= 0
x_425 >= 0
x_426 >= 0
x_427 >= 0
x_428 >= 0
x_429 >= 0
x_430 >= 0
x_431 >= 0
x_432 >= 0
x_433 >= 0
x_434 >= 0
x_435 >= 0
x_436 >= 0
x_437 >= 0
x_438 >= 0
x_439 >= 0
x_440 >= 0
x_441 >= 0
x_442 >= 0
x_443 >= 0
x_444 >= 0
x_445 >= 0
x_446 >= 0
x_447 >= 0
x_448 >= 0
x_449 >= 0
x_450 >= 0
x_451 >= 0
x_452 >= 0
x_453 >= 0
x_454 >= 0
x_455 >= 0
x_456 >= 0
x_457 >= 0
x_458 >= 0
x_459 >= 0
x_460 >= 0
x_461 >= 0
x_462 >= 0
x_463 >= 0
x_464 >= 0
x_465 >= 0
x_466 >= 0
x_467 >= 0
x_468 >= 0
x_469 >= 0
x_470 >= 0
x_471 >= 0
x_472 >= 0
x_473 >= 0
x_474 >= 0
x_475 >= 0
x_476 >= 0
x_477 >= 0
x_478 >= 0
x_479 >= 0
x_480 >= 0
x_481 >= 0
x_482 >= 0
x_483 >= 0
x_484 >= 0
x_485 >= 0
x_486 >= 0
x_487 >= 0
x_488 >= 0
x_489 >= 0
x_490 >= 0
x_491 >= 0
x_492 >= 0
x_493 >= 0
x_494 >= 0
x_495 >= 0
x_496 >= 0
x_497 >= 0
x_498 >= 0
x_499 >= 0
x_500 >= 0
x_501 >= 0
x_502 >= 0
x_503 >= 0
x_504 >= 0
x_505 >= 0
x_506 >= 0
x_507 >= 0
x_508 >= 0
x_509 >= 0
x_510 >= 0
x_511 >= 0
x_512 >= 0
x_513 >= 0
x_514 >= 0
x_515 >= 0
x_516 >= 0
x_517 >= 0
x_518 >= 0
x_519 >= 0
x_520 >= 0
x_521 >= 0
x_522 >= 0
x_523 >= 0
x_524 >= 0
x_525 >= 0
x_526 >= 0
x_527 >= 0
x_528 >= 0
x_529 >= 0
x_530 >= 0
x_531 >= 0
x_532 >= 0
x_533 >= 0
x_534 >= 0
x_535 >= 0
x_536 >= 0
x_537 >= 0
x_538 >= 0
General
Binaries
y_1
y_2
y_3
y_4
y_5
y_6
y_7
y_8
y_9
y_10
y_11
y_12
y_13
y_14
y_15
y_16
y_17
y_18
y_19
y_20
y_21
y_22
y_23
y_24
y_25
y_26
y_27
y_28
y_29
y_30
y_31
y_32
y_33
y_34
y_35
y_36
y_37
y_38
y_39
y_40
y_41
y_42
y_43
y_44
y_45
y_46
y_47
y_48
y_49
y_50
y_51
y_52
y_53
y_54
y_55
y_56
y_57
y_58
y_59
y_60
y_61
y_62
y_63
y_64
y_65
y_66
y_67
y_68
y_69
y_70
y_71
y_72
y_73
y_74
y_75
y_76
y_77
y_78
y_79
y_80
y_81
y_82
y_83
y_84
y_85
y_86
y_87
y_88
y_89
y_90
y_91
y_92
y_93
y_94
y_95
y_96
y_97
y_98
y_99
y_100
y_101
y_102
y_103
y_104
y_105
y_106
y_107
y_108
y_109
y_110
y_111
y_112
y_113
y_114
y_115
y_116
y_117
y_118
y_119
y_120
y_121
y_122
y_123
y_124
y_125
y_126
y_127
y_128
y_129
y_130
y_131
y_132
y_133
y_134
y_135
y_136
y_137
y_138
y_139
y_140
y_141
y_142
y_143
y_144
y_145
y_146
y_147
y_148
y_149
y_150
y_151
y_152
y_153
y_154
y_155
y_156
y_157
y_158
y_159
y_160
y_161
y_162
y_163
y_164
y_165
y_166
y_167
y_168
y_169
y_170
y_171
y_172
y_173
y_174
y_175
y_176
y_177
y_178
y_179
y_180
y_181
y_182
y_183
y_184
y_185
y_186
y_187
y_188
y_189
y_190
y_191
y_192
y_193
y_194
y_195
y_196
y_197
y_198
y_199
y_200
y_201
y_202
y_203
y_204
y_205
y_206
y_207
y_208
y_209
y_210
y_211
y_212
y_213
y_214
y_215
y_216
y_217
y_218
y_219
y_220
y_221
y_222
y_223
y_224
y_225
y_226
y_227
y_228
y_229
y_230
y_231
y_232
y_233
y_234
y_235
y_236
y_237
y_238
y_239
y_240
y_241
y_242
y_243
y_244
y_245
y_246
y_247
y_248
y_249
y_250
y_251
y_252
y_253
y_254
y_255
y_256
y_257
y_258
y_259
y_260
y_261
y_262
y_263
y_264
y_265
y_266
y_267
y_268
y_269
y_270
y_271
y_272
y_273
y_274
y_275
y_276
y_277
y_278
y_279
y_280
y_281
y_282
y_283
y_284
y_285
y_286
y_287
y_288
y_289
y_290
y_291
y_292
y_293
y_294
y_295
y_296
y_297
y_298
y_299
y_300
y_301
y_302
y_303
y_304
y_305
y_306
y_307
y_308
y_309
y_310
y_311
y_312
y_313
y_314
y_315
y_316
y_317
y_318
y_319
y_320
y_321
y_322
y_323
y_324
y_325
y_326
y_327
y_328
y_329
y_330
y_331
y_332
y_333
y_334
y_335
y_336
y_337
y_338
y_339
y_340
y_341
y_342
y_343
y_344
y_345
y_346
y_347
y_348
y_349
y_350
y_351
y_352
y_353
y_354
y_355
y_356
y_357
y_358
y_359
y_360
y_361
y_362
y_363
y_364
y_365
y_366
y_367
y_368
y_369
y_370
y_371
y_372
y_373
y_374
y_375
y_376
y_377
y_378
y_379
y_380
y_381
y_382
y_383
y_384
y_385
y_386
y_387
y_388
y_389
y_390
y_391
y_392
y_393
y_394
y_395
y_396
y_397
y_398
y_399
y_400
y_401
y_402
y_403
y_404
y_405
y_406
y_407
y_408
y_409
y_410
y_411
y_412
y_413
y_414
y_415
y_416
y_417
y_418
y_419
y_420
y_421
y_422
y_423
y_424
y_425
y_426
y_427
y_428
y_429
y_430
y_431
y_432
y_433
y_434
y_435
y_436
y_437
y_438
y_439
y_440
y_441
y_442
y_443
y_444
y_445
y_446
y_447
y_448
y_449
y_450
y_451
y_452
y_453
y_454
y_455
y_456
y_457
y_458
y_459
y_460
y_461
y_462
y_463
y_464
y_465
y_466
y_467
y_468
y_469
y_470
y_471
y_472
y_473
y_474
y_475
y_476
y_477
y_478
y_479
y_480
y_481
y_482
y_483
y_484
y_485
y_486
y_487
y_488
y_489
y_490
y_491
y_492
y_493
y_494
y_495
y_496
y_497
y_498
y_499
y_500
y_501
y_502
y_503
y_504
y_505
y_506
y_507
y_508
y_509
y_510
y_511
y_512
y_513
y_514
y_515
y_516
y_517
y_518
y_519
y_520
y_521
y_522
y_523
y_524
y_525
y_526
y_527
y_528
y_529
y_530
y_531
y_532
End
